p cnf 358 947
-42 1 0
-42 5 0
42 -1 -5 0
-43 1 0
-43 -42 0
43 -1 42 0
-44 5 0
-44 -42 0
44 -5 42 0
-45 -43 0
-45 -44 0
45 43 44 0
-46 9 0
-46 13 0
46 -9 -13 0
-47 9 0
-47 -46 0
47 -9 46 0
-48 13 0
-48 -46 0
48 -13 46 0
-49 -47 0
-49 -48 0
49 47 48 0
-50 -45 0
-50 -49 0
50 45 49 0
-51 -45 0
-51 -50 0
51 45 50 0
-52 -49 0
-52 -50 0
52 49 50 0
-53 -51 0
-53 -52 0
53 51 52 0
-54 33 0
-54 41 0
54 -33 -41 0
-55 17 0
-55 18 0
55 -17 -18 0
-56 17 0
-56 -55 0
56 -17 55 0
-57 18 0
-57 -55 0
57 -18 55 0
-58 -56 0
-58 -57 0
58 56 57 0
-59 19 0
-59 20 0
59 -19 -20 0
-60 19 0
-60 -59 0
60 -19 59 0
-61 20 0
-61 -59 0
61 -20 59 0
-62 -60 0
-62 -61 0
62 60 61 0
-63 -58 0
-63 -62 0
63 58 62 0
-64 -58 0
-64 -63 0
64 58 63 0
-65 -62 0
-65 -63 0
65 62 63 0
-66 -64 0
-66 -65 0
66 64 65 0
-67 21 0
-67 22 0
67 -21 -22 0
-68 21 0
-68 -67 0
68 -21 67 0
-69 22 0
-69 -67 0
69 -22 67 0
-70 -68 0
-70 -69 0
70 68 69 0
-71 23 0
-71 24 0
71 -23 -24 0
-72 23 0
-72 -71 0
72 -23 71 0
-73 24 0
-73 -71 0
73 -24 71 0
-74 -72 0
-74 -73 0
74 72 73 0
-75 -70 0
-75 -74 0
75 70 74 0
-76 -70 0
-76 -75 0
76 70 75 0
-77 -74 0
-77 -75 0
77 74 75 0
-78 -76 0
-78 -77 0
78 76 77 0
-79 -66 0
-79 -78 0
79 66 78 0
-80 -66 0
-80 -79 0
80 66 79 0
-81 -78 0
-81 -79 0
81 78 79 0
-82 -80 0
-82 -81 0
82 80 81 0
-83 54 0
-83 -82 0
83 -54 82 0
-84 54 0
-84 -83 0
84 -54 83 0
-85 -82 0
-85 -83 0
85 82 83 0
-86 -84 0
-86 -85 0
86 84 85 0
-87 -53 0
-87 -86 0
87 53 86 0
-88 -53 0
-88 -87 0
88 53 87 0
-89 -86 0
-89 -87 0
89 86 87 0
-90 -88 0
-90 -89 0
90 88 89 0
-91 17 0
-91 21 0
91 -17 -21 0
-92 17 0
-92 -91 0
92 -17 91 0
-93 21 0
-93 -91 0
93 -21 91 0
-94 -92 0
-94 -93 0
94 92 93 0
-95 25 0
-95 29 0
95 -25 -29 0
-96 25 0
-96 -95 0
96 -25 95 0
-97 29 0
-97 -95 0
97 -29 95 0
-98 -96 0
-98 -97 0
98 96 97 0
-99 -94 0
-99 -98 0
99 94 98 0
-100 -94 0
-100 -99 0
100 94 99 0
-101 -98 0
-101 -99 0
101 98 99 0
-102 -100 0
-102 -101 0
102 100 101 0
-103 37 0
-103 41 0
103 -37 -41 0
-104 1 0
-104 2 0
104 -1 -2 0
-105 1 0
-105 -104 0
105 -1 104 0
-106 2 0
-106 -104 0
106 -2 104 0
-107 -105 0
-107 -106 0
107 105 106 0
-108 3 0
-108 4 0
108 -3 -4 0
-109 3 0
-109 -108 0
109 -3 108 0
-110 4 0
-110 -108 0
110 -4 108 0
-111 -109 0
-111 -110 0
111 109 110 0
-112 -107 0
-112 -111 0
112 107 111 0
-113 -107 0
-113 -112 0
113 107 112 0
-114 -111 0
-114 -112 0
114 111 112 0
-115 -113 0
-115 -114 0
115 113 114 0
-116 5 0
-116 6 0
116 -5 -6 0
-117 5 0
-117 -116 0
117 -5 116 0
-118 6 0
-118 -116 0
118 -6 116 0
-119 -117 0
-119 -118 0
119 117 118 0
-120 7 0
-120 8 0
120 -7 -8 0
-121 7 0
-121 -120 0
121 -7 120 0
-122 8 0
-122 -120 0
122 -8 120 0
-123 -121 0
-123 -122 0
123 121 122 0
-124 -119 0
-124 -123 0
124 119 123 0
-125 -119 0
-125 -124 0
125 119 124 0
-126 -123 0
-126 -124 0
126 123 124 0
-127 -125 0
-127 -126 0
127 125 126 0
-128 -115 0
-128 -127 0
128 115 127 0
-129 -115 0
-129 -128 0
129 115 128 0
-130 -127 0
-130 -128 0
130 127 128 0
-131 -129 0
-131 -130 0
131 129 130 0
-132 103 0
-132 -131 0
132 -103 131 0
-133 103 0
-133 -132 0
133 -103 132 0
-134 -131 0
-134 -132 0
134 131 132 0
-135 -133 0
-135 -134 0
135 133 134 0
-136 -102 0
-136 -135 0
136 102 135 0
-137 -102 0
-137 -136 0
137 102 136 0
-138 -135 0
-138 -136 0
138 135 136 0
-139 -137 0
-139 -138 0
139 137 138 0
-140 18 0
-140 22 0
140 -18 -22 0
-141 18 0
-141 -140 0
141 -18 140 0
-142 22 0
-142 -140 0
142 -22 140 0
-143 -141 0
-143 -142 0
143 141 142 0
-144 26 0
-144 30 0
144 -26 -30 0
-145 26 0
-145 -144 0
145 -26 144 0
-146 30 0
-146 -144 0
146 -30 144 0
-147 -145 0
-147 -146 0
147 145 146 0
-148 -143 0
-148 -147 0
148 143 147 0
-149 -143 0
-149 -148 0
149 143 148 0
-150 -147 0
-150 -148 0
150 147 148 0
-151 -149 0
-151 -150 0
151 149 150 0
-152 38 0
-152 41 0
152 -38 -41 0
-153 9 0
-153 10 0
153 -9 -10 0
-154 9 0
-154 -153 0
154 -9 153 0
-155 10 0
-155 -153 0
155 -10 153 0
-156 -154 0
-156 -155 0
156 154 155 0
-157 11 0
-157 12 0
157 -11 -12 0
-158 11 0
-158 -157 0
158 -11 157 0
-159 12 0
-159 -157 0
159 -12 157 0
-160 -158 0
-160 -159 0
160 158 159 0
-161 -156 0
-161 -160 0
161 156 160 0
-162 -156 0
-162 -161 0
162 156 161 0
-163 -160 0
-163 -161 0
163 160 161 0
-164 -162 0
-164 -163 0
164 162 163 0
-165 13 0
-165 14 0
165 -13 -14 0
-166 13 0
-166 -165 0
166 -13 165 0
-167 14 0
-167 -165 0
167 -14 165 0
-168 -166 0
-168 -167 0
168 166 167 0
-169 15 0
-169 16 0
169 -15 -16 0
-170 15 0
-170 -169 0
170 -15 169 0
-171 16 0
-171 -169 0
171 -16 169 0
-172 -170 0
-172 -171 0
172 170 171 0
-173 -168 0
-173 -172 0
173 168 172 0
-174 -168 0
-174 -173 0
174 168 173 0
-175 -172 0
-175 -173 0
175 172 173 0
-176 -174 0
-176 -175 0
176 174 175 0
-177 -164 0
-177 -176 0
177 164 176 0
-178 -164 0
-178 -177 0
178 164 177 0
-179 -176 0
-179 -177 0
179 176 177 0
-180 -178 0
-180 -179 0
180 178 179 0
-181 152 0
-181 -180 0
181 -152 180 0
-182 152 0
-182 -181 0
182 -152 181 0
-183 -180 0
-183 -181 0
183 180 181 0
-184 -182 0
-184 -183 0
184 182 183 0
-185 -151 0
-185 -184 0
185 151 184 0
-186 -151 0
-186 -185 0
186 151 185 0
-187 -184 0
-187 -185 0
187 184 185 0
-188 -186 0
-188 -187 0
188 186 187 0
-189 19 0
-189 23 0
189 -19 -23 0
-190 19 0
-190 -189 0
190 -19 189 0
-191 23 0
-191 -189 0
191 -23 189 0
-192 -190 0
-192 -191 0
192 190 191 0
-193 27 0
-193 31 0
193 -27 -31 0
-194 27 0
-194 -193 0
194 -27 193 0
-195 31 0
-195 -193 0
195 -31 193 0
-196 -194 0
-196 -195 0
196 194 195 0
-197 -192 0
-197 -196 0
197 192 196 0
-198 -192 0
-198 -197 0
198 192 197 0
-199 -196 0
-199 -197 0
199 196 197 0
-200 -198 0
-200 -199 0
200 198 199 0
-201 39 0
-201 41 0
201 -39 -41 0
-202 -115 0
-202 -164 0
202 115 164 0
-203 -115 0
-203 -202 0
203 115 202 0
-204 -164 0
-204 -202 0
204 164 202 0
-205 -203 0
-205 -204 0
205 203 204 0
-206 201 0
-206 -205 0
206 -201 205 0
-207 201 0
-207 -206 0
207 -201 206 0
-208 -205 0
-208 -206 0
208 205 206 0
-209 -207 0
-209 -208 0
209 207 208 0
-210 -200 0
-210 -209 0
210 200 209 0
-211 -200 0
-211 -210 0
211 200 210 0
-212 -209 0
-212 -210 0
212 209 210 0
-213 -211 0
-213 -212 0
213 211 212 0
-214 20 0
-214 24 0
214 -20 -24 0
-215 20 0
-215 -214 0
215 -20 214 0
-216 24 0
-216 -214 0
216 -24 214 0
-217 -215 0
-217 -216 0
217 215 216 0
-218 28 0
-218 32 0
218 -28 -32 0
-219 28 0
-219 -218 0
219 -28 218 0
-220 32 0
-220 -218 0
220 -32 218 0
-221 -219 0
-221 -220 0
221 219 220 0
-222 -217 0
-222 -221 0
222 217 221 0
-223 -217 0
-223 -222 0
223 217 222 0
-224 -221 0
-224 -222 0
224 221 222 0
-225 -223 0
-225 -224 0
225 223 224 0
-226 40 0
-226 41 0
226 -40 -41 0
-227 -127 0
-227 -176 0
227 127 176 0
-228 -127 0
-228 -227 0
228 127 227 0
-229 -176 0
-229 -227 0
229 176 227 0
-230 -228 0
-230 -229 0
230 228 229 0
-231 226 0
-231 -230 0
231 -226 230 0
-232 226 0
-232 -231 0
232 -226 231 0
-233 -230 0
-233 -231 0
233 230 231 0
-234 -232 0
-234 -233 0
234 232 233 0
-235 -225 0
-235 -234 0
235 225 234 0
-236 -225 0
-236 -235 0
236 225 235 0
-237 -234 0
-237 -235 0
237 234 235 0
-238 -236 0
-238 -237 0
238 236 237 0
-239 2 0
-239 6 0
239 -2 -6 0
-240 2 0
-240 -239 0
240 -2 239 0
-241 6 0
-241 -239 0
241 -6 239 0
-242 -240 0
-242 -241 0
242 240 241 0
-243 10 0
-243 14 0
243 -10 -14 0
-244 10 0
-244 -243 0
244 -10 243 0
-245 14 0
-245 -243 0
245 -14 243 0
-246 -244 0
-246 -245 0
246 244 245 0
-247 -242 0
-247 -246 0
247 242 246 0
-248 -242 0
-248 -247 0
248 242 247 0
-249 -246 0
-249 -247 0
249 246 247 0
-250 -248 0
-250 -249 0
250 248 249 0
-251 34 0
-251 41 0
251 -34 -41 0
-252 25 0
-252 26 0
252 -25 -26 0
-253 25 0
-253 -252 0
253 -25 252 0
-254 26 0
-254 -252 0
254 -26 252 0
-255 -253 0
-255 -254 0
255 253 254 0
-256 27 0
-256 28 0
256 -27 -28 0
-257 27 0
-257 -256 0
257 -27 256 0
-258 28 0
-258 -256 0
258 -28 256 0
-259 -257 0
-259 -258 0
259 257 258 0
-260 -255 0
-260 -259 0
260 255 259 0
-261 -255 0
-261 -260 0
261 255 260 0
-262 -259 0
-262 -260 0
262 259 260 0
-263 -261 0
-263 -262 0
263 261 262 0
-264 29 0
-264 30 0
264 -29 -30 0
-265 29 0
-265 -264 0
265 -29 264 0
-266 30 0
-266 -264 0
266 -30 264 0
-267 -265 0
-267 -266 0
267 265 266 0
-268 31 0
-268 32 0
268 -31 -32 0
-269 31 0
-269 -268 0
269 -31 268 0
-270 32 0
-270 -268 0
270 -32 268 0
-271 -269 0
-271 -270 0
271 269 270 0
-272 -267 0
-272 -271 0
272 267 271 0
-273 -267 0
-273 -272 0
273 267 272 0
-274 -271 0
-274 -272 0
274 271 272 0
-275 -273 0
-275 -274 0
275 273 274 0
-276 -263 0
-276 -275 0
276 263 275 0
-277 -263 0
-277 -276 0
277 263 276 0
-278 -275 0
-278 -276 0
278 275 276 0
-279 -277 0
-279 -278 0
279 277 278 0
-280 251 0
-280 -279 0
280 -251 279 0
-281 251 0
-281 -280 0
281 -251 280 0
-282 -279 0
-282 -280 0
282 279 280 0
-283 -281 0
-283 -282 0
283 281 282 0
-284 -250 0
-284 -283 0
284 250 283 0
-285 -250 0
-285 -284 0
285 250 284 0
-286 -283 0
-286 -284 0
286 283 284 0
-287 -285 0
-287 -286 0
287 285 286 0
-288 3 0
-288 7 0
288 -3 -7 0
-289 3 0
-289 -288 0
289 -3 288 0
-290 7 0
-290 -288 0
290 -7 288 0
-291 -289 0
-291 -290 0
291 289 290 0
-292 11 0
-292 15 0
292 -11 -15 0
-293 11 0
-293 -292 0
293 -11 292 0
-294 15 0
-294 -292 0
294 -15 292 0
-295 -293 0
-295 -294 0
295 293 294 0
-296 -291 0
-296 -295 0
296 291 295 0
-297 -291 0
-297 -296 0
297 291 296 0
-298 -295 0
-298 -296 0
298 295 296 0
-299 -297 0
-299 -298 0
299 297 298 0
-300 35 0
-300 41 0
300 -35 -41 0
-301 -66 0
-301 -263 0
301 66 263 0
-302 -66 0
-302 -301 0
302 66 301 0
-303 -263 0
-303 -301 0
303 263 301 0
-304 -302 0
-304 -303 0
304 302 303 0
-305 300 0
-305 -304 0
305 -300 304 0
-306 300 0
-306 -305 0
306 -300 305 0
-307 -304 0
-307 -305 0
307 304 305 0
-308 -306 0
-308 -307 0
308 306 307 0
-309 -299 0
-309 -308 0
309 299 308 0
-310 -299 0
-310 -309 0
310 299 309 0
-311 -308 0
-311 -309 0
311 308 309 0
-312 -310 0
-312 -311 0
312 310 311 0
-313 4 0
-313 8 0
313 -4 -8 0
-314 4 0
-314 -313 0
314 -4 313 0
-315 8 0
-315 -313 0
315 -8 313 0
-316 -314 0
-316 -315 0
316 314 315 0
-317 12 0
-317 16 0
317 -12 -16 0
-318 12 0
-318 -317 0
318 -12 317 0
-319 16 0
-319 -317 0
319 -16 317 0
-320 -318 0
-320 -319 0
320 318 319 0
-321 -316 0
-321 -320 0
321 316 320 0
-322 -316 0
-322 -321 0
322 316 321 0
-323 -320 0
-323 -321 0
323 320 321 0
-324 -322 0
-324 -323 0
324 322 323 0
-325 36 0
-325 41 0
325 -36 -41 0
-326 -78 0
-326 -275 0
326 78 275 0
-327 -78 0
-327 -326 0
327 78 326 0
-328 -275 0
-328 -326 0
328 275 326 0
-329 -327 0
-329 -328 0
329 327 328 0
-330 325 0
-330 -329 0
330 -325 329 0
-331 325 0
-331 -330 0
331 -325 330 0
-332 -329 0
-332 -330 0
332 329 330 0
-333 -331 0
-333 -332 0
333 331 332 0
-334 -324 0
-334 -333 0
334 324 333 0
-335 -324 0
-335 -334 0
335 324 334 0
-336 -333 0
-336 -334 0
336 333 334 0
-337 -335 0
-337 -336 0
337 335 336 0
-338 90 0
-338 -287 0
338 -90 287 0
-339 312 0
-339 338 0
339 -312 -338 0
-340 -139 0
-340 188 0
340 139 -188 0
-341 213 0
-341 340 0
341 -213 -340 0
-342 139 0
-342 -188 0
342 -139 188 0
-343 213 0
-343 342 0
343 -213 -342 0
-344 139 0
-344 188 0
344 -139 -188 0
-345 213 0
-345 344 0
345 -213 -344 0
-346 -213 0
-346 344 0
346 213 -344 0
-347 238 0
-347 343 0
347 -238 -343 0
-348 238 0
-348 341 0
348 -238 -341 0
-349 -238 -346 0
-349 238 -345 0
349 -238 346 0
349 238 345 0
-350 -347 0
-350 349 0
350 347 -349 0
-351 -348 0
-351 350 0
351 348 -350 0
-352 -337 0
-352 339 0
352 337 -339 0
-353 -351 0
-353 352 0
353 351 -352 0
-354 -238 0
-354 353 0
354 238 -353 0
355 -32 -354 0
-356 32 0
-356 -355 0
-357 354 0
-357 -355 0
358 356 357 0
-358 0
